(set-logic QF_LRA)
(declare-fun X0 () Real )
(declare-fun Y0 () Real )
(declare-fun X1 () Real )
(declare-fun Y1 () Real )
(declare-fun X2 () Real )
(declare-fun Y2 () Real )
(declare-fun X3 () Real )
(declare-fun Y3 () Real )
(declare-fun X4 () Real )
(declare-fun Y4 () Real )
(declare-fun X5 () Real )
(declare-fun Y5 () Real )
(declare-fun X6 () Real )
(declare-fun Y6 () Real )
(declare-fun X7 () Real )
(declare-fun Y7 () Real )
(declare-fun X8 () Real )
(declare-fun Y8 () Real )
(declare-fun X9 () Real )
(declare-fun Y9 () Real )
(declare-fun X10 () Real )
(declare-fun Y10 () Real )
(declare-fun X11 () Real )
(declare-fun Y11 () Real )
(declare-fun X12 () Real )
(declare-fun Y12 () Real )
(declare-fun X13 () Real )
(declare-fun Y13 () Real )
(declare-fun X14 () Real )
(declare-fun Y14 () Real )
(declare-fun X15 () Real )
(declare-fun Y15 () Real )
(declare-fun X16 () Real )
(declare-fun Y16 () Real )
(declare-fun X17 () Real )
(declare-fun Y17 () Real )
(declare-fun Z () Real )
(assert ( and  
( or ( <= ( + X0 80 ) X1 )  ( <= ( + X1 60 ) X0 )  ( <= ( + Y0 68 ) Y1 )  ( <= ( + Y1 14 ) Y0 )  )
( or ( <= ( + X0 80 ) X2 )  ( <= ( + X2 61 ) X0 )  ( <= ( + Y0 68 ) Y2 )  ( <= ( + Y2 84 ) Y0 )  )
( or ( <= ( + X0 80 ) X3 )  ( <= ( + X3 36 ) X0 )  ( <= ( + Y0 68 ) Y3 )  ( <= ( + Y3 52 ) Y0 )  )
( or ( <= ( + X0 80 ) X4 )  ( <= ( + X4 10 ) X0 )  ( <= ( + Y0 68 ) Y4 )  ( <= ( + Y4 17 ) Y0 )  )
( or ( <= ( + X0 80 ) X5 )  ( <= ( + X5 35 ) X0 )  ( <= ( + Y0 68 ) Y5 )  ( <= ( + Y5 70 ) Y0 )  )
( or ( <= ( + X0 80 ) X6 )  ( <= ( + X6 47 ) X0 )  ( <= ( + Y0 68 ) Y6 )  ( <= ( + Y6 40 ) Y0 )  )
( or ( <= ( + X0 80 ) X7 )  ( <= ( + X7 32 ) X0 )  ( <= ( + Y0 68 ) Y7 )  ( <= ( + Y7 10 ) Y0 )  )
( or ( <= ( + X0 80 ) X8 )  ( <= ( + X8 47 ) X0 )  ( <= ( + Y0 68 ) Y8 )  ( <= ( + Y8 31 ) Y0 )  )
( or ( <= ( + X0 80 ) X9 )  ( <= ( + X9 79 ) X0 )  ( <= ( + Y0 68 ) Y9 )  ( <= ( + Y9 84 ) Y0 )  )
( or ( <= ( + X0 80 ) X10 )  ( <= ( + X10 48 ) X0 )  ( <= ( + Y0 68 ) Y10 )  ( <= ( + Y10 77 ) Y0 )  )
( or ( <= ( + X0 80 ) X11 )  ( <= ( + X11 47 ) X0 )  ( <= ( + Y0 68 ) Y11 )  ( <= ( + Y11 21 ) Y0 )  )
( or ( <= ( + X0 80 ) X12 )  ( <= ( + X12 8 ) X0 )  ( <= ( + Y0 68 ) Y12 )  ( <= ( + Y12 20 ) Y0 )  )
( or ( <= ( + X0 80 ) X13 )  ( <= ( + X13 44 ) X0 )  ( <= ( + Y0 68 ) Y13 )  ( <= ( + Y13 56 ) Y0 )  )
( or ( <= ( + X0 80 ) X14 )  ( <= ( + X14 61 ) X0 )  ( <= ( + Y0 68 ) Y14 )  ( <= ( + Y14 80 ) Y0 )  )
( or ( <= ( + X0 80 ) X15 )  ( <= ( + X15 55 ) X0 )  ( <= ( + Y0 68 ) Y15 )  ( <= ( + Y15 80 ) Y0 )  )
( or ( <= ( + X0 80 ) X16 )  ( <= ( + X16 39 ) X0 )  ( <= ( + Y0 68 ) Y16 )  ( <= ( + Y16 91 ) Y0 )  )
( or ( <= ( + X0 80 ) X17 )  ( <= ( + X17 19 ) X0 )  ( <= ( + Y0 68 ) Y17 )  ( <= ( + Y17 90 ) Y0 )  )
( or ( <= ( + X1 60 ) X2 )  ( <= ( + X2 61 ) X1 )  ( <= ( + Y1 14 ) Y2 )  ( <= ( + Y2 84 ) Y1 )  )
( or ( <= ( + X1 60 ) X3 )  ( <= ( + X3 36 ) X1 )  ( <= ( + Y1 14 ) Y3 )  ( <= ( + Y3 52 ) Y1 )  )
( or ( <= ( + X1 60 ) X4 )  ( <= ( + X4 10 ) X1 )  ( <= ( + Y1 14 ) Y4 )  ( <= ( + Y4 17 ) Y1 )  )
( or ( <= ( + X1 60 ) X5 )  ( <= ( + X5 35 ) X1 )  ( <= ( + Y1 14 ) Y5 )  ( <= ( + Y5 70 ) Y1 )  )
( or ( <= ( + X1 60 ) X6 )  ( <= ( + X6 47 ) X1 )  ( <= ( + Y1 14 ) Y6 )  ( <= ( + Y6 40 ) Y1 )  )
( or ( <= ( + X1 60 ) X7 )  ( <= ( + X7 32 ) X1 )  ( <= ( + Y1 14 ) Y7 )  ( <= ( + Y7 10 ) Y1 )  )
( or ( <= ( + X1 60 ) X8 )  ( <= ( + X8 47 ) X1 )  ( <= ( + Y1 14 ) Y8 )  ( <= ( + Y8 31 ) Y1 )  )
( or ( <= ( + X1 60 ) X9 )  ( <= ( + X9 79 ) X1 )  ( <= ( + Y1 14 ) Y9 )  ( <= ( + Y9 84 ) Y1 )  )
( or ( <= ( + X1 60 ) X10 )  ( <= ( + X10 48 ) X1 )  ( <= ( + Y1 14 ) Y10 )  ( <= ( + Y10 77 ) Y1 )  )
( or ( <= ( + X1 60 ) X11 )  ( <= ( + X11 47 ) X1 )  ( <= ( + Y1 14 ) Y11 )  ( <= ( + Y11 21 ) Y1 )  )
( or ( <= ( + X1 60 ) X12 )  ( <= ( + X12 8 ) X1 )  ( <= ( + Y1 14 ) Y12 )  ( <= ( + Y12 20 ) Y1 )  )
( or ( <= ( + X1 60 ) X13 )  ( <= ( + X13 44 ) X1 )  ( <= ( + Y1 14 ) Y13 )  ( <= ( + Y13 56 ) Y1 )  )
( or ( <= ( + X1 60 ) X14 )  ( <= ( + X14 61 ) X1 )  ( <= ( + Y1 14 ) Y14 )  ( <= ( + Y14 80 ) Y1 )  )
( or ( <= ( + X1 60 ) X15 )  ( <= ( + X15 55 ) X1 )  ( <= ( + Y1 14 ) Y15 )  ( <= ( + Y15 80 ) Y1 )  )
( or ( <= ( + X1 60 ) X16 )  ( <= ( + X16 39 ) X1 )  ( <= ( + Y1 14 ) Y16 )  ( <= ( + Y16 91 ) Y1 )  )
( or ( <= ( + X1 60 ) X17 )  ( <= ( + X17 19 ) X1 )  ( <= ( + Y1 14 ) Y17 )  ( <= ( + Y17 90 ) Y1 )  )
( or ( <= ( + X2 61 ) X3 )  ( <= ( + X3 36 ) X2 )  ( <= ( + Y2 84 ) Y3 )  ( <= ( + Y3 52 ) Y2 )  )
( or ( <= ( + X2 61 ) X4 )  ( <= ( + X4 10 ) X2 )  ( <= ( + Y2 84 ) Y4 )  ( <= ( + Y4 17 ) Y2 )  )
( or ( <= ( + X2 61 ) X5 )  ( <= ( + X5 35 ) X2 )  ( <= ( + Y2 84 ) Y5 )  ( <= ( + Y5 70 ) Y2 )  )
( or ( <= ( + X2 61 ) X6 )  ( <= ( + X6 47 ) X2 )  ( <= ( + Y2 84 ) Y6 )  ( <= ( + Y6 40 ) Y2 )  )
( or ( <= ( + X2 61 ) X7 )  ( <= ( + X7 32 ) X2 )  ( <= ( + Y2 84 ) Y7 )  ( <= ( + Y7 10 ) Y2 )  )
( or ( <= ( + X2 61 ) X8 )  ( <= ( + X8 47 ) X2 )  ( <= ( + Y2 84 ) Y8 )  ( <= ( + Y8 31 ) Y2 )  )
( or ( <= ( + X2 61 ) X9 )  ( <= ( + X9 79 ) X2 )  ( <= ( + Y2 84 ) Y9 )  ( <= ( + Y9 84 ) Y2 )  )
( or ( <= ( + X2 61 ) X10 )  ( <= ( + X10 48 ) X2 )  ( <= ( + Y2 84 ) Y10 )  ( <= ( + Y10 77 ) Y2 )  )
( or ( <= ( + X2 61 ) X11 )  ( <= ( + X11 47 ) X2 )  ( <= ( + Y2 84 ) Y11 )  ( <= ( + Y11 21 ) Y2 )  )
( or ( <= ( + X2 61 ) X12 )  ( <= ( + X12 8 ) X2 )  ( <= ( + Y2 84 ) Y12 )  ( <= ( + Y12 20 ) Y2 )  )
( or ( <= ( + X2 61 ) X13 )  ( <= ( + X13 44 ) X2 )  ( <= ( + Y2 84 ) Y13 )  ( <= ( + Y13 56 ) Y2 )  )
( or ( <= ( + X2 61 ) X14 )  ( <= ( + X14 61 ) X2 )  ( <= ( + Y2 84 ) Y14 )  ( <= ( + Y14 80 ) Y2 )  )
( or ( <= ( + X2 61 ) X15 )  ( <= ( + X15 55 ) X2 )  ( <= ( + Y2 84 ) Y15 )  ( <= ( + Y15 80 ) Y2 )  )
( or ( <= ( + X2 61 ) X16 )  ( <= ( + X16 39 ) X2 )  ( <= ( + Y2 84 ) Y16 )  ( <= ( + Y16 91 ) Y2 )  )
( or ( <= ( + X2 61 ) X17 )  ( <= ( + X17 19 ) X2 )  ( <= ( + Y2 84 ) Y17 )  ( <= ( + Y17 90 ) Y2 )  )
( or ( <= ( + X3 36 ) X4 )  ( <= ( + X4 10 ) X3 )  ( <= ( + Y3 52 ) Y4 )  ( <= ( + Y4 17 ) Y3 )  )
( or ( <= ( + X3 36 ) X5 )  ( <= ( + X5 35 ) X3 )  ( <= ( + Y3 52 ) Y5 )  ( <= ( + Y5 70 ) Y3 )  )
( or ( <= ( + X3 36 ) X6 )  ( <= ( + X6 47 ) X3 )  ( <= ( + Y3 52 ) Y6 )  ( <= ( + Y6 40 ) Y3 )  )
( or ( <= ( + X3 36 ) X7 )  ( <= ( + X7 32 ) X3 )  ( <= ( + Y3 52 ) Y7 )  ( <= ( + Y7 10 ) Y3 )  )
( or ( <= ( + X3 36 ) X8 )  ( <= ( + X8 47 ) X3 )  ( <= ( + Y3 52 ) Y8 )  ( <= ( + Y8 31 ) Y3 )  )
( or ( <= ( + X3 36 ) X9 )  ( <= ( + X9 79 ) X3 )  ( <= ( + Y3 52 ) Y9 )  ( <= ( + Y9 84 ) Y3 )  )
( or ( <= ( + X3 36 ) X10 )  ( <= ( + X10 48 ) X3 )  ( <= ( + Y3 52 ) Y10 )  ( <= ( + Y10 77 ) Y3 )  )
( or ( <= ( + X3 36 ) X11 )  ( <= ( + X11 47 ) X3 )  ( <= ( + Y3 52 ) Y11 )  ( <= ( + Y11 21 ) Y3 )  )
( or ( <= ( + X3 36 ) X12 )  ( <= ( + X12 8 ) X3 )  ( <= ( + Y3 52 ) Y12 )  ( <= ( + Y12 20 ) Y3 )  )
( or ( <= ( + X3 36 ) X13 )  ( <= ( + X13 44 ) X3 )  ( <= ( + Y3 52 ) Y13 )  ( <= ( + Y13 56 ) Y3 )  )
( or ( <= ( + X3 36 ) X14 )  ( <= ( + X14 61 ) X3 )  ( <= ( + Y3 52 ) Y14 )  ( <= ( + Y14 80 ) Y3 )  )
( or ( <= ( + X3 36 ) X15 )  ( <= ( + X15 55 ) X3 )  ( <= ( + Y3 52 ) Y15 )  ( <= ( + Y15 80 ) Y3 )  )
( or ( <= ( + X3 36 ) X16 )  ( <= ( + X16 39 ) X3 )  ( <= ( + Y3 52 ) Y16 )  ( <= ( + Y16 91 ) Y3 )  )
( or ( <= ( + X3 36 ) X17 )  ( <= ( + X17 19 ) X3 )  ( <= ( + Y3 52 ) Y17 )  ( <= ( + Y17 90 ) Y3 )  )
( or ( <= ( + X4 10 ) X5 )  ( <= ( + X5 35 ) X4 )  ( <= ( + Y4 17 ) Y5 )  ( <= ( + Y5 70 ) Y4 )  )
( or ( <= ( + X4 10 ) X6 )  ( <= ( + X6 47 ) X4 )  ( <= ( + Y4 17 ) Y6 )  ( <= ( + Y6 40 ) Y4 )  )
( or ( <= ( + X4 10 ) X7 )  ( <= ( + X7 32 ) X4 )  ( <= ( + Y4 17 ) Y7 )  ( <= ( + Y7 10 ) Y4 )  )
( or ( <= ( + X4 10 ) X8 )  ( <= ( + X8 47 ) X4 )  ( <= ( + Y4 17 ) Y8 )  ( <= ( + Y8 31 ) Y4 )  )
( or ( <= ( + X4 10 ) X9 )  ( <= ( + X9 79 ) X4 )  ( <= ( + Y4 17 ) Y9 )  ( <= ( + Y9 84 ) Y4 )  )
( or ( <= ( + X4 10 ) X10 )  ( <= ( + X10 48 ) X4 )  ( <= ( + Y4 17 ) Y10 )  ( <= ( + Y10 77 ) Y4 )  )
( or ( <= ( + X4 10 ) X11 )  ( <= ( + X11 47 ) X4 )  ( <= ( + Y4 17 ) Y11 )  ( <= ( + Y11 21 ) Y4 )  )
( or ( <= ( + X4 10 ) X12 )  ( <= ( + X12 8 ) X4 )  ( <= ( + Y4 17 ) Y12 )  ( <= ( + Y12 20 ) Y4 )  )
( or ( <= ( + X4 10 ) X13 )  ( <= ( + X13 44 ) X4 )  ( <= ( + Y4 17 ) Y13 )  ( <= ( + Y13 56 ) Y4 )  )
( or ( <= ( + X4 10 ) X14 )  ( <= ( + X14 61 ) X4 )  ( <= ( + Y4 17 ) Y14 )  ( <= ( + Y14 80 ) Y4 )  )
( or ( <= ( + X4 10 ) X15 )  ( <= ( + X15 55 ) X4 )  ( <= ( + Y4 17 ) Y15 )  ( <= ( + Y15 80 ) Y4 )  )
( or ( <= ( + X4 10 ) X16 )  ( <= ( + X16 39 ) X4 )  ( <= ( + Y4 17 ) Y16 )  ( <= ( + Y16 91 ) Y4 )  )
( or ( <= ( + X4 10 ) X17 )  ( <= ( + X17 19 ) X4 )  ( <= ( + Y4 17 ) Y17 )  ( <= ( + Y17 90 ) Y4 )  )
( or ( <= ( + X5 35 ) X6 )  ( <= ( + X6 47 ) X5 )  ( <= ( + Y5 70 ) Y6 )  ( <= ( + Y6 40 ) Y5 )  )
( or ( <= ( + X5 35 ) X7 )  ( <= ( + X7 32 ) X5 )  ( <= ( + Y5 70 ) Y7 )  ( <= ( + Y7 10 ) Y5 )  )
( or ( <= ( + X5 35 ) X8 )  ( <= ( + X8 47 ) X5 )  ( <= ( + Y5 70 ) Y8 )  ( <= ( + Y8 31 ) Y5 )  )
( or ( <= ( + X5 35 ) X9 )  ( <= ( + X9 79 ) X5 )  ( <= ( + Y5 70 ) Y9 )  ( <= ( + Y9 84 ) Y5 )  )
( or ( <= ( + X5 35 ) X10 )  ( <= ( + X10 48 ) X5 )  ( <= ( + Y5 70 ) Y10 )  ( <= ( + Y10 77 ) Y5 )  )
( or ( <= ( + X5 35 ) X11 )  ( <= ( + X11 47 ) X5 )  ( <= ( + Y5 70 ) Y11 )  ( <= ( + Y11 21 ) Y5 )  )
( or ( <= ( + X5 35 ) X12 )  ( <= ( + X12 8 ) X5 )  ( <= ( + Y5 70 ) Y12 )  ( <= ( + Y12 20 ) Y5 )  )
( or ( <= ( + X5 35 ) X13 )  ( <= ( + X13 44 ) X5 )  ( <= ( + Y5 70 ) Y13 )  ( <= ( + Y13 56 ) Y5 )  )
( or ( <= ( + X5 35 ) X14 )  ( <= ( + X14 61 ) X5 )  ( <= ( + Y5 70 ) Y14 )  ( <= ( + Y14 80 ) Y5 )  )
( or ( <= ( + X5 35 ) X15 )  ( <= ( + X15 55 ) X5 )  ( <= ( + Y5 70 ) Y15 )  ( <= ( + Y15 80 ) Y5 )  )
( or ( <= ( + X5 35 ) X16 )  ( <= ( + X16 39 ) X5 )  ( <= ( + Y5 70 ) Y16 )  ( <= ( + Y16 91 ) Y5 )  )
( or ( <= ( + X5 35 ) X17 )  ( <= ( + X17 19 ) X5 )  ( <= ( + Y5 70 ) Y17 )  ( <= ( + Y17 90 ) Y5 )  )
( or ( <= ( + X6 47 ) X7 )  ( <= ( + X7 32 ) X6 )  ( <= ( + Y6 40 ) Y7 )  ( <= ( + Y7 10 ) Y6 )  )
( or ( <= ( + X6 47 ) X8 )  ( <= ( + X8 47 ) X6 )  ( <= ( + Y6 40 ) Y8 )  ( <= ( + Y8 31 ) Y6 )  )
( or ( <= ( + X6 47 ) X9 )  ( <= ( + X9 79 ) X6 )  ( <= ( + Y6 40 ) Y9 )  ( <= ( + Y9 84 ) Y6 )  )
( or ( <= ( + X6 47 ) X10 )  ( <= ( + X10 48 ) X6 )  ( <= ( + Y6 40 ) Y10 )  ( <= ( + Y10 77 ) Y6 )  )
( or ( <= ( + X6 47 ) X11 )  ( <= ( + X11 47 ) X6 )  ( <= ( + Y6 40 ) Y11 )  ( <= ( + Y11 21 ) Y6 )  )
( or ( <= ( + X6 47 ) X12 )  ( <= ( + X12 8 ) X6 )  ( <= ( + Y6 40 ) Y12 )  ( <= ( + Y12 20 ) Y6 )  )
( or ( <= ( + X6 47 ) X13 )  ( <= ( + X13 44 ) X6 )  ( <= ( + Y6 40 ) Y13 )  ( <= ( + Y13 56 ) Y6 )  )
( or ( <= ( + X6 47 ) X14 )  ( <= ( + X14 61 ) X6 )  ( <= ( + Y6 40 ) Y14 )  ( <= ( + Y14 80 ) Y6 )  )
( or ( <= ( + X6 47 ) X15 )  ( <= ( + X15 55 ) X6 )  ( <= ( + Y6 40 ) Y15 )  ( <= ( + Y15 80 ) Y6 )  )
( or ( <= ( + X6 47 ) X16 )  ( <= ( + X16 39 ) X6 )  ( <= ( + Y6 40 ) Y16 )  ( <= ( + Y16 91 ) Y6 )  )
( or ( <= ( + X6 47 ) X17 )  ( <= ( + X17 19 ) X6 )  ( <= ( + Y6 40 ) Y17 )  ( <= ( + Y17 90 ) Y6 )  )
( or ( <= ( + X7 32 ) X8 )  ( <= ( + X8 47 ) X7 )  ( <= ( + Y7 10 ) Y8 )  ( <= ( + Y8 31 ) Y7 )  )
( or ( <= ( + X7 32 ) X9 )  ( <= ( + X9 79 ) X7 )  ( <= ( + Y7 10 ) Y9 )  ( <= ( + Y9 84 ) Y7 )  )
( or ( <= ( + X7 32 ) X10 )  ( <= ( + X10 48 ) X7 )  ( <= ( + Y7 10 ) Y10 )  ( <= ( + Y10 77 ) Y7 )  )
( or ( <= ( + X7 32 ) X11 )  ( <= ( + X11 47 ) X7 )  ( <= ( + Y7 10 ) Y11 )  ( <= ( + Y11 21 ) Y7 )  )
( or ( <= ( + X7 32 ) X12 )  ( <= ( + X12 8 ) X7 )  ( <= ( + Y7 10 ) Y12 )  ( <= ( + Y12 20 ) Y7 )  )
( or ( <= ( + X7 32 ) X13 )  ( <= ( + X13 44 ) X7 )  ( <= ( + Y7 10 ) Y13 )  ( <= ( + Y13 56 ) Y7 )  )
( or ( <= ( + X7 32 ) X14 )  ( <= ( + X14 61 ) X7 )  ( <= ( + Y7 10 ) Y14 )  ( <= ( + Y14 80 ) Y7 )  )
( or ( <= ( + X7 32 ) X15 )  ( <= ( + X15 55 ) X7 )  ( <= ( + Y7 10 ) Y15 )  ( <= ( + Y15 80 ) Y7 )  )
( or ( <= ( + X7 32 ) X16 )  ( <= ( + X16 39 ) X7 )  ( <= ( + Y7 10 ) Y16 )  ( <= ( + Y16 91 ) Y7 )  )
( or ( <= ( + X7 32 ) X17 )  ( <= ( + X17 19 ) X7 )  ( <= ( + Y7 10 ) Y17 )  ( <= ( + Y17 90 ) Y7 )  )
( or ( <= ( + X8 47 ) X9 )  ( <= ( + X9 79 ) X8 )  ( <= ( + Y8 31 ) Y9 )  ( <= ( + Y9 84 ) Y8 )  )
( or ( <= ( + X8 47 ) X10 )  ( <= ( + X10 48 ) X8 )  ( <= ( + Y8 31 ) Y10 )  ( <= ( + Y10 77 ) Y8 )  )
( or ( <= ( + X8 47 ) X11 )  ( <= ( + X11 47 ) X8 )  ( <= ( + Y8 31 ) Y11 )  ( <= ( + Y11 21 ) Y8 )  )
( or ( <= ( + X8 47 ) X12 )  ( <= ( + X12 8 ) X8 )  ( <= ( + Y8 31 ) Y12 )  ( <= ( + Y12 20 ) Y8 )  )
( or ( <= ( + X8 47 ) X13 )  ( <= ( + X13 44 ) X8 )  ( <= ( + Y8 31 ) Y13 )  ( <= ( + Y13 56 ) Y8 )  )
( or ( <= ( + X8 47 ) X14 )  ( <= ( + X14 61 ) X8 )  ( <= ( + Y8 31 ) Y14 )  ( <= ( + Y14 80 ) Y8 )  )
( or ( <= ( + X8 47 ) X15 )  ( <= ( + X15 55 ) X8 )  ( <= ( + Y8 31 ) Y15 )  ( <= ( + Y15 80 ) Y8 )  )
( or ( <= ( + X8 47 ) X16 )  ( <= ( + X16 39 ) X8 )  ( <= ( + Y8 31 ) Y16 )  ( <= ( + Y16 91 ) Y8 )  )
( or ( <= ( + X8 47 ) X17 )  ( <= ( + X17 19 ) X8 )  ( <= ( + Y8 31 ) Y17 )  ( <= ( + Y17 90 ) Y8 )  )
( or ( <= ( + X9 79 ) X10 )  ( <= ( + X10 48 ) X9 )  ( <= ( + Y9 84 ) Y10 )  ( <= ( + Y10 77 ) Y9 )  )
( or ( <= ( + X9 79 ) X11 )  ( <= ( + X11 47 ) X9 )  ( <= ( + Y9 84 ) Y11 )  ( <= ( + Y11 21 ) Y9 )  )
( or ( <= ( + X9 79 ) X12 )  ( <= ( + X12 8 ) X9 )  ( <= ( + Y9 84 ) Y12 )  ( <= ( + Y12 20 ) Y9 )  )
( or ( <= ( + X9 79 ) X13 )  ( <= ( + X13 44 ) X9 )  ( <= ( + Y9 84 ) Y13 )  ( <= ( + Y13 56 ) Y9 )  )
( or ( <= ( + X9 79 ) X14 )  ( <= ( + X14 61 ) X9 )  ( <= ( + Y9 84 ) Y14 )  ( <= ( + Y14 80 ) Y9 )  )
( or ( <= ( + X9 79 ) X15 )  ( <= ( + X15 55 ) X9 )  ( <= ( + Y9 84 ) Y15 )  ( <= ( + Y15 80 ) Y9 )  )
( or ( <= ( + X9 79 ) X16 )  ( <= ( + X16 39 ) X9 )  ( <= ( + Y9 84 ) Y16 )  ( <= ( + Y16 91 ) Y9 )  )
( or ( <= ( + X9 79 ) X17 )  ( <= ( + X17 19 ) X9 )  ( <= ( + Y9 84 ) Y17 )  ( <= ( + Y17 90 ) Y9 )  )
( or ( <= ( + X10 48 ) X11 )  ( <= ( + X11 47 ) X10 )  ( <= ( + Y10 77 ) Y11 )  ( <= ( + Y11 21 ) Y10 )  )
( or ( <= ( + X10 48 ) X12 )  ( <= ( + X12 8 ) X10 )  ( <= ( + Y10 77 ) Y12 )  ( <= ( + Y12 20 ) Y10 )  )
( or ( <= ( + X10 48 ) X13 )  ( <= ( + X13 44 ) X10 )  ( <= ( + Y10 77 ) Y13 )  ( <= ( + Y13 56 ) Y10 )  )
( or ( <= ( + X10 48 ) X14 )  ( <= ( + X14 61 ) X10 )  ( <= ( + Y10 77 ) Y14 )  ( <= ( + Y14 80 ) Y10 )  )
( or ( <= ( + X10 48 ) X15 )  ( <= ( + X15 55 ) X10 )  ( <= ( + Y10 77 ) Y15 )  ( <= ( + Y15 80 ) Y10 )  )
( or ( <= ( + X10 48 ) X16 )  ( <= ( + X16 39 ) X10 )  ( <= ( + Y10 77 ) Y16 )  ( <= ( + Y16 91 ) Y10 )  )
( or ( <= ( + X10 48 ) X17 )  ( <= ( + X17 19 ) X10 )  ( <= ( + Y10 77 ) Y17 )  ( <= ( + Y17 90 ) Y10 )  )
( or ( <= ( + X11 47 ) X12 )  ( <= ( + X12 8 ) X11 )  ( <= ( + Y11 21 ) Y12 )  ( <= ( + Y12 20 ) Y11 )  )
( or ( <= ( + X11 47 ) X13 )  ( <= ( + X13 44 ) X11 )  ( <= ( + Y11 21 ) Y13 )  ( <= ( + Y13 56 ) Y11 )  )
( or ( <= ( + X11 47 ) X14 )  ( <= ( + X14 61 ) X11 )  ( <= ( + Y11 21 ) Y14 )  ( <= ( + Y14 80 ) Y11 )  )
( or ( <= ( + X11 47 ) X15 )  ( <= ( + X15 55 ) X11 )  ( <= ( + Y11 21 ) Y15 )  ( <= ( + Y15 80 ) Y11 )  )
( or ( <= ( + X11 47 ) X16 )  ( <= ( + X16 39 ) X11 )  ( <= ( + Y11 21 ) Y16 )  ( <= ( + Y16 91 ) Y11 )  )
( or ( <= ( + X11 47 ) X17 )  ( <= ( + X17 19 ) X11 )  ( <= ( + Y11 21 ) Y17 )  ( <= ( + Y17 90 ) Y11 )  )
( or ( <= ( + X12 8 ) X13 )  ( <= ( + X13 44 ) X12 )  ( <= ( + Y12 20 ) Y13 )  ( <= ( + Y13 56 ) Y12 )  )
( or ( <= ( + X12 8 ) X14 )  ( <= ( + X14 61 ) X12 )  ( <= ( + Y12 20 ) Y14 )  ( <= ( + Y14 80 ) Y12 )  )
( or ( <= ( + X12 8 ) X15 )  ( <= ( + X15 55 ) X12 )  ( <= ( + Y12 20 ) Y15 )  ( <= ( + Y15 80 ) Y12 )  )
( or ( <= ( + X12 8 ) X16 )  ( <= ( + X16 39 ) X12 )  ( <= ( + Y12 20 ) Y16 )  ( <= ( + Y16 91 ) Y12 )  )
( or ( <= ( + X12 8 ) X17 )  ( <= ( + X17 19 ) X12 )  ( <= ( + Y12 20 ) Y17 )  ( <= ( + Y17 90 ) Y12 )  )
( or ( <= ( + X13 44 ) X14 )  ( <= ( + X14 61 ) X13 )  ( <= ( + Y13 56 ) Y14 )  ( <= ( + Y14 80 ) Y13 )  )
( or ( <= ( + X13 44 ) X15 )  ( <= ( + X15 55 ) X13 )  ( <= ( + Y13 56 ) Y15 )  ( <= ( + Y15 80 ) Y13 )  )
( or ( <= ( + X13 44 ) X16 )  ( <= ( + X16 39 ) X13 )  ( <= ( + Y13 56 ) Y16 )  ( <= ( + Y16 91 ) Y13 )  )
( or ( <= ( + X13 44 ) X17 )  ( <= ( + X17 19 ) X13 )  ( <= ( + Y13 56 ) Y17 )  ( <= ( + Y17 90 ) Y13 )  )
( or ( <= ( + X14 61 ) X15 )  ( <= ( + X15 55 ) X14 )  ( <= ( + Y14 80 ) Y15 )  ( <= ( + Y15 80 ) Y14 )  )
( or ( <= ( + X14 61 ) X16 )  ( <= ( + X16 39 ) X14 )  ( <= ( + Y14 80 ) Y16 )  ( <= ( + Y16 91 ) Y14 )  )
( or ( <= ( + X14 61 ) X17 )  ( <= ( + X17 19 ) X14 )  ( <= ( + Y14 80 ) Y17 )  ( <= ( + Y17 90 ) Y14 )  )
( or ( <= ( + X15 55 ) X16 )  ( <= ( + X16 39 ) X15 )  ( <= ( + Y15 80 ) Y16 )  ( <= ( + Y16 91 ) Y15 )  )
( or ( <= ( + X15 55 ) X17 )  ( <= ( + X17 19 ) X15 )  ( <= ( + Y15 80 ) Y17 )  ( <= ( + Y17 90 ) Y15 )  )
( or ( <= ( + X16 39 ) X17 )  ( <= ( + X17 19 ) X16 )  ( <= ( + Y16 91 ) Y17 )  ( <= ( + Y17 90 ) Y16 )  )
( >= X0 0)
( <= ( + X0 80) Z)
( >= Y0 0)
( <= ( + Y0 68 ) 100)
( >= X1 0)
( <= ( + X1 60) Z)
( >= Y1 0)
( <= ( + Y1 14 ) 100)
( >= X2 0)
( <= ( + X2 61) Z)
( >= Y2 0)
( <= ( + Y2 84 ) 100)
( >= X3 0)
( <= ( + X3 36) Z)
( >= Y3 0)
( <= ( + Y3 52 ) 100)
( >= X4 0)
( <= ( + X4 10) Z)
( >= Y4 0)
( <= ( + Y4 17 ) 100)
( >= X5 0)
( <= ( + X5 35) Z)
( >= Y5 0)
( <= ( + Y5 70 ) 100)
( >= X6 0)
( <= ( + X6 47) Z)
( >= Y6 0)
( <= ( + Y6 40 ) 100)
( >= X7 0)
( <= ( + X7 32) Z)
( >= Y7 0)
( <= ( + Y7 10 ) 100)
( >= X8 0)
( <= ( + X8 47) Z)
( >= Y8 0)
( <= ( + Y8 31 ) 100)
( >= X9 0)
( <= ( + X9 79) Z)
( >= Y9 0)
( <= ( + Y9 84 ) 100)
( >= X10 0)
( <= ( + X10 48) Z)
( >= Y10 0)
( <= ( + Y10 77 ) 100)
( >= X11 0)
( <= ( + X11 47) Z)
( >= Y11 0)
( <= ( + Y11 21 ) 100)
( >= X12 0)
( <= ( + X12 8) Z)
( >= Y12 0)
( <= ( + Y12 20 ) 100)
( >= X13 0)
( <= ( + X13 44) Z)
( >= Y13 0)
( <= ( + Y13 56 ) 100)
( >= X14 0)
( <= ( + X14 61) Z)
( >= Y14 0)
( <= ( + Y14 80 ) 100)
( >= X15 0)
( <= ( + X15 55) Z)
( >= Y15 0)
( <= ( + Y15 80 ) 100)
( >= X16 0)
( <= ( + X16 39) Z)
( >= Y16 0)
( <= ( + Y16 91 ) 100)
( >= X17 0)
( <= ( + X17 19) Z)
( >= Y17 0)
( <= ( + Y17 90 ) 100)
) )
(minimize Z)
(check-sat)
